g3 3 1 0	# problem 70l1i
 801 184 1 0 71	# vars, constraints, objectives, ranges, eqns
 0 1	# nonlinear constraints, objectives
 0 0	# network constraints: nonlinear, linear
 0 176 0	# nonlinear vars in constraints, objectives, both
 0 0 0 1	# linear network variables; functions; arith, flags
 0 625 0 0 176	# discrete variables: binary, integer, nonlinear (b,c,o)
 3182 790	# nonzeros in Jacobian, gradients
 0 0	# max name lengths: constraints, variables
 0 0 0 0 0	# common exprs: b,c,o,c1,o1
b
2 0
2 0
2 0
2 0
2 0
2 0
2 0
2 0
2 0
2 0
2 0
2 0
2 0
2 0
2 0
2 0
2 0
2 0
2 0
2 0
2 0
2 0
2 0
2 0
2 0
2 0
2 0
2 0
2 0
2 0
2 0
2 0
2 0
2 0
2 0
2 0
2 0
2 0
2 0
2 0
2 0
2 0
2 0
2 0
2 0
2 0
2 0
2 0
2 0
2 0
2 0
2 0
2 0
2 0
2 0
2 0
2 0
2 0
2 0
2 0
2 0
2 0
2 0
2 0
2 0
2 0
2 0
2 0
2 0
2 0
2 0
2 0
2 0
2 0
2 0
2 0
2 0
2 0
2 0
2 0
2 0
2 0
2 0
2 0
2 0
2 0
2 0
2 0
2 0
2 0
2 0
2 0
2 0
2 0
2 0
2 0
2 0
2 0
2 0
2 0
2 0
2 0
2 0
2 0
2 0
2 0
2 0
2 0
2 0
2 0
2 0
2 0
2 0
2 0
2 0
2 0
2 0
2 0
2 0
2 0
2 0
2 0
2 0
2 0
2 0
2 0
2 0
2 0
2 0
2 0
2 0
2 0
2 0
2 0
2 0
2 0
2 0
2 0
2 0
2 0
2 0
2 0
2 0
2 0
2 0
2 0
2 0
2 0
2 0
2 0
2 0
2 0
2 0
2 0
2 0
2 0
2 0
2 0
2 0
2 0
2 0
2 0
2 0
2 0
2 0
2 0
2 0
2 0
2 0
2 0
2 0
2 0
2 0
2 0
2 0
2 0
0 0 30
0 0 30
0 0 30
0 0 30
0 0 30
0 0 30
0 0 30
0 0 27
0 0 30
0 0 30
0 0 30
0 0 30
0 0 30
0 0 20
0 0 20
0 0 20
0 0 20
0 0 20
0 0 20
0 0 20
0 0 20
0 0 20
0 0 20
0 0 20
0 0 20
0 0 20
0 0 10
0 0 10
0 0 10
0 0 10
0 0 10
0 0 10
0 0 10
0 0 10
0 0 10
0 0 10
0 0 10
0 0 10
0 0 10
0 0 20
0 0 20
0 0 20
0 0 20
0 0 20
0 0 20
0 0 20
0 0 20
0 0 20
0 0 20
0 0 20
0 0 20
0 0 20
0 0 30
0 0 30
0 0 30
0 0 30
0 0 30
0 0 30
0 0 30
0 0 27
0 0 30
0 0 30
0 0 30
0 0 30
0 0 30
0 0 10
0 0 10
0 0 10
0 0 10
0 0 10
0 0 10
0 0 10
0 0 10
0 0 10
0 0 10
0 0 10
0 0 10
0 0 10
0 0 20
0 0 20
0 0 20
0 0 20
0 0 20
0 0 20
0 0 20
0 0 20
0 0 20
0 0 20
0 0 20
0 0 20
0 0 20
0 0 20
0 0 20
0 0 20
0 0 20
0 0 20
0 0 20
0 0 20
0 0 20
0 0 20
0 0 20
0 0 20
0 0 20
0 0 20
0 0 30
0 0 30
0 0 30
0 0 30
0 0 30
0 0 30
0 0 30
0 0 27
0 0 30
0 0 30
0 0 30
0 0 30
0 0 30
0 0 30
0 0 30
0 0 30
0 0 30
0 0 30
0 0 30
0 0 30
0 0 27
0 0 30
0 0 30
0 0 30
0 0 30
0 0 30
0 0 30
0 0 30
0 0 30
0 0 30
0 0 30
0 0 30
0 0 30
0 0 27
0 0 30
0 0 30
0 0 30
0 0 30
0 0 30
0 0 10
0 0 10
0 0 10
0 0 10
0 0 10
0 0 10
0 0 10
0 0 10
0 0 10
0 0 10
0 0 10
0 0 10
0 0 10
0 0 30
0 0 30
0 0 30
0 0 30
0 0 30
0 0 30
0 0 30
0 0 27
0 0 30
0 0 30
0 0 30
0 0 30
0 0 30
0 0 10
0 0 10
0 0 10
0 0 10
0 0 10
0 0 10
0 0 10
0 0 10
0 0 10
0 0 10
0 0 10
0 0 10
0 0 10
0 0 20
0 0 20
0 0 20
0 0 20
0 0 20
0 0 20
0 0 20
0 0 20
0 0 20
0 0 20
0 0 20
0 0 20
0 0 20
0 0 36
0 0 48
0 0 38
0 0 36
0 0 38
0 0 38
0 0 40
0 0 27
0 0 30
0 0 30
0 0 31
0 0 47
0 0 80
0 0 28
0 0 29
0 0 27
0 0 29
0 0 35
0 0 36
0 0 23
0 0 36
0 0 29
0 0 33
0 0 36
0 0 34
0 0 35
0 0 36
0 0 28
0 0 29
0 0 27
0 0 29
0 0 35
0 0 37
0 0 23
0 0 41
0 0 29
0 0 33
0 0 37
0 0 34
0 0 35
0 0 48
0 0 28
0 0 29
0 0 27
0 0 29
0 0 35
0 0 37
0 0 23
0 0 38
0 0 29
0 0 33
0 0 37
0 0 34
0 0 35
0 0 38
0 0 28
0 0 29
0 0 27
0 0 29
0 0 35
0 0 36
0 0 23
0 0 36
0 0 29
0 0 33
0 0 36
0 0 34
0 0 35
0 0 36
0 0 28
0 0 29
0 0 27
0 0 29
0 0 35
0 0 37
0 0 23
0 0 38
0 0 29
0 0 33
0 0 37
0 0 34
0 0 35
0 0 38
0 0 28
0 0 29
0 0 27
0 0 29
0 0 35
0 0 37
0 0 23
0 0 38
0 0 29
0 0 33
0 0 37
0 0 34
0 0 35
0 0 38
0 0 28
0 0 29
0 0 27
0 0 29
0 0 35
0 0 37
0 0 23
0 0 40
0 0 29
0 0 33
0 0 37
0 0 34
0 0 35
0 0 40
0 0 27
0 0 27
0 0 27
0 0 27
0 0 27
0 0 27
0 0 23
0 0 27
0 0 27
0 0 27
0 0 27
0 0 27
0 0 27
0 0 27
0 0 28
0 0 29
0 0 27
0 0 29
0 0 30
0 0 30
0 0 23
0 0 30
0 0 29
0 0 30
0 0 30
0 0 30
0 0 30
0 0 30
0 0 28
0 0 29
0 0 27
0 0 29
0 0 30
0 0 30
0 0 23
0 0 30
0 0 29
0 0 30
0 0 30
0 0 30
0 0 30
0 0 30
0 0 28
0 0 29
0 0 27
0 0 29
0 0 31
0 0 31
0 0 23
0 0 31
0 0 29
0 0 31
0 0 31
0 0 31
0 0 31
0 0 31
0 0 28
0 0 29
0 0 27
0 0 29
0 0 35
0 0 37
0 0 23
0 0 41
0 0 29
0 0 33
0 0 37
0 0 34
0 0 35
0 0 47
0 0 28
0 0 29
0 0 27
0 0 29
0 0 35
0 0 37
0 0 23
0 0 41
0 0 29
0 0 33
0 0 37
0 0 34
0 0 35
0 0 108
0 0 27
0 0 26
0 0 28
0 0 28
0 0 22
0 0 28
0 0 28
0 0 27
0 0 28
0 0 28
0 0 28
0 0 22
0 0 26
0 0 25
0 0 21
0 0 28
0 0 27
0 0 26
0 0 29
0 0 29
0 0 22
0 0 29
0 0 29
0 0 27
0 0 29
0 0 29
0 0 29
0 0 22
0 0 26
0 0 25
0 0 21
0 0 29
0 0 27
0 0 26
0 0 27
0 0 27
0 0 22
0 0 27
0 0 27
0 0 27
0 0 27
0 0 27
0 0 27
0 0 22
0 0 26
0 0 25
0 0 21
0 0 27
0 0 27
0 0 26
0 0 29
0 0 29
0 0 22
0 0 29
0 0 29
0 0 27
0 0 29
0 0 29
0 0 29
0 0 22
0 0 26
0 0 25
0 0 21
0 0 29
0 0 27
0 0 26
0 0 32
0 0 35
0 0 22
0 0 32
0 0 30
0 0 27
0 0 33
0 0 29
0 0 33
0 0 22
0 0 26
0 0 25
0 0 21
0 0 35
0 0 27
0 0 26
0 0 32
0 0 36
0 0 22
0 0 32
0 0 30
0 0 27
0 0 33
0 0 29
0 0 33
0 0 22
0 0 26
0 0 25
0 0 21
0 0 37
0 0 23
0 0 23
0 0 23
0 0 23
0 0 22
0 0 23
0 0 23
0 0 23
0 0 23
0 0 23
0 0 23
0 0 22
0 0 23
0 0 23
0 0 21
0 0 23
0 0 27
0 0 26
0 0 32
0 0 36
0 0 22
0 0 32
0 0 30
0 0 27
0 0 33
0 0 29
0 0 33
0 0 22
0 0 26
0 0 25
0 0 21
0 0 41
0 0 27
0 0 26
0 0 29
0 0 29
0 0 22
0 0 29
0 0 29
0 0 27
0 0 29
0 0 29
0 0 29
0 0 22
0 0 26
0 0 25
0 0 21
0 0 29
0 0 27
0 0 26
0 0 32
0 0 33
0 0 22
0 0 32
0 0 30
0 0 27
0 0 33
0 0 29
0 0 33
0 0 22
0 0 26
0 0 25
0 0 21
0 0 33
0 0 27
0 0 26
0 0 32
0 0 36
0 0 22
0 0 32
0 0 30
0 0 27
0 0 33
0 0 29
0 0 33
0 0 22
0 0 26
0 0 25
0 0 21
0 0 37
0 0 27
0 0 26
0 0 32
0 0 34
0 0 22
0 0 32
0 0 30
0 0 27
0 0 33
0 0 29
0 0 33
0 0 22
0 0 26
0 0 25
0 0 21
0 0 34
0 0 27
0 0 26
0 0 32
0 0 35
0 0 22
0 0 32
0 0 30
0 0 27
0 0 33
0 0 29
0 0 33
0 0 22
0 0 26
0 0 25
0 0 21
0 0 35
0 0 27
0 0 26
0 0 32
0 0 36
0 0 22
0 0 32
0 0 30
0 0 27
0 0 33
0 0 29
0 0 33
0 0 22
0 0 26
0 0 25
0 0 21
0 0 126
0 0 70
0 0 80
0 0 10
0 0 30
0 0 80
0 0 30
0 0 70
0 0 10
0 0 30
0 0 50
0 0 40
r
4 30
4 20
4 10
4 20
4 30
4 10
4 20
4 20
4 30
4 30
4 30
4 10
4 30
4 10
4 20
4 80
4 0
4 0
4 0
4 0
4 0
4 0
4 0
4 0
4 0
4 0
4 0
4 0
4 0
4 0
4 0
4 0
4 0
4 0
4 0
4 0
4 0
4 0
4 0
4 0
4 0
4 0
4 0
4 0
4 0
4 0
4 0
4 0
4 0
4 0
4 0
4 0
4 0
4 0
4 0
4 0
4 0
4 0
4 0
4 -70
4 -80
4 -10
4 -30
4 -80
4 -30
4 -70
4 -10
4 -30
4 -50
4 -40
4 100
1 36
1 48
1 38
1 36
1 38
1 38
1 40
1 27
1 30
1 30
1 31
1 47
1 108
1 28
1 29
1 27
1 29
1 35
1 37
1 23
1 41
1 29
1 33
1 37
1 34
1 35
1 126
1 27
1 26
1 32
1 36
1 22
1 32
1 30
1 27
1 33
1 29
1 33
1 22
1 26
1 25
1 21
1 130
1 70
1 80
1 10
1 30
1 80
1 30
1 70
1 10
1 30
1 50
1 40
1 30
1 20
1 10
1 20
1 30
1 10
1 20
1 20
1 30
1 30
1 30
1 10
1 30
1 10
1 20
1 80
1 36
1 48
1 38
1 36
1 38
1 38
1 40
1 27
1 30
1 30
1 31
1 47
1 108
1 28
1 29
1 27
1 29
1 35
1 37
1 23
1 41
1 29
1 33
1 37
1 34
1 35
1 126
1 27
1 26
1 32
1 36
1 22
1 32
1 30
1 27
1 33
1 29
1 33
1 22
1 26
1 25
1 21
1 130
C0
n0
C1
n0
C2
n0
C3
n0
C4
n0
C5
n0
C6
n0
C7
n0
C8
n0
C9
n0
C10
n0
C11
n0
C12
n0
C13
n0
C14
n0
C15
n0
C16
n0
C17
n0
C18
n0
C19
n0
C20
n0
C21
n0
C22
n0
C23
n0
C24
n0
C25
n0
C26
n0
C27
n0
C28
n0
C29
n0
C30
n0
C31
n0
C32
n0
C33
n0
C34
n0
C35
n0
C36
n0
C37
n0
C38
n0
C39
n0
C40
n0
C41
n0
C42
n0
C43
n0
C44
n0
C45
n0
C46
n0
C47
n0
C48
n0
C49
n0
C50
n0
C51
n0
C52
n0
C53
n0
C54
n0
C55
n0
C56
n0
C57
n0
C58
n0
C59
n0
C60
n0
C61
n0
C62
n0
C63
n0
C64
n0
C65
n0
C66
n0
C67
n0
C68
n0
C69
n0
C70
n0
C71
n0
C72
n0
C73
n0
C74
n0
C75
n0
C76
n0
C77
n0
C78
n0
C79
n0
C80
n0
C81
n0
C82
n0
C83
n0
C84
n0
C85
n0
C86
n0
C87
n0
C88
n0
C89
n0
C90
n0
C91
n0
C92
n0
C93
n0
C94
n0
C95
n0
C96
n0
C97
n0
C98
n0
C99
n0
C100
n0
C101
n0
C102
n0
C103
n0
C104
n0
C105
n0
C106
n0
C107
n0
C108
n0
C109
n0
C110
n0
C111
n0
C112
n0
C113
n0
C114
n0
C115
n0
C116
n0
C117
n0
C118
n0
C119
n0
C120
n0
C121
n0
C122
n0
C123
n0
C124
n0
C125
n0
C126
n0
C127
n0
C128
n0
C129
n0
C130
n0
C131
n0
C132
n0
C133
n0
C134
n0
C135
n0
C136
n0
C137
n0
C138
n0
C139
n0
C140
n0
C141
n0
C142
n0
C143
n0
C144
n0
C145
n0
C146
n0
C147
n0
C148
n0
C149
n0
C150
n0
C151
n0
C152
n0
C153
n0
C154
n0
C155
n0
C156
n0
C157
n0
C158
n0
C159
n0
C160
n0
C161
n0
C162
n0
C163
n0
C164
n0
C165
n0
C166
n0
C167
n0
C168
n0
C169
n0
C170
n0
C171
n0
C172
n0
C173
n0
C174
n0
C175
n0
C176
n0
C177
n0
C178
n0
C179
n0
C180
n0
C181
n0
C182
n0
C183
n0
O0 0
o54
11
o2
n10000
o5
o16
o3
o54
16
v0
v11
v22
v33
v44
v55
v66
v77
v88
v99
v110
v121
v132
v143
v154
v165
n-70
n2
o2
n10000
o5
o16
o3
o54
16
v1
v12
v23
v34
v45
v56
v67
v78
v89
v100
v111
v122
v133
v144
v155
v166
n-80
n2
o2
n10000
o5
o16
o3
o54
16
v2
v13
v24
v35
v46
v57
v68
v79
v90
v101
v112
v123
v134
v145
v156
v167
n-10
n2
o2
n10000
o5
o16
o3
o54
16
v3
v14
v25
v36
v47
v58
v69
v80
v91
v102
v113
v124
v135
v146
v157
v168
n-30
n2
o2
n10000
o5
o16
o3
o54
16
v4
v15
v26
v37
v48
v59
v70
v81
v92
v103
v114
v125
v136
v147
v158
v169
n-80
n2
o2
n10000
o5
o16
o3
o54
16
v5
v16
v27
v38
v49
v60
v71
v82
v93
v104
v115
v126
v137
v148
v159
v170
n-30
n2
o2
n10000
o5
o16
o3
o54
16
v6
v17
v28
v39
v50
v61
v72
v83
v94
v105
v116
v127
v138
v149
v160
v171
n-70
n2
o2
n10000
o5
o16
o3
o54
16
v7
v18
v29
v40
v51
v62
v73
v84
v95
v106
v117
v128
v139
v150
v161
v172
n-10
n2
o2
n10000
o5
o16
o3
o54
16
v8
v19
v30
v41
v52
v63
v74
v85
v96
v107
v118
v129
v140
v151
v162
v173
n-30
n2
o2
n10000
o5
o16
o3
o54
16
v9
v20
v31
v42
v53
v64
v75
v86
v97
v108
v119
v130
v141
v152
v163
v174
n-50
n2
o2
n10000
o5
o16
o3
o54
16
v10
v21
v32
v43
v54
v65
v76
v87
v98
v109
v120
v131
v142
v153
v164
v175
n-40
n2
k800
4
8
12
16
20
24
28
32
36
40
44
48
52
56
60
64
68
72
76
80
84
88
92
96
100
104
108
112
116
120
124
128
132
136
140
144
148
152
156
160
164
168
172
176
180
184
188
192
196
200
204
208
212
216
220
224
228
232
236
240
244
248
252
256
260
264
268
272
276
280
284
288
292
296
300
304
308
312
316
320
324
328
332
336
340
344
348
352
356
360
364
368
372
376
380
384
388
392
396
400
404
408
412
416
420
424
428
432
436
440
444
448
452
456
460
464
468
472
476
480
484
488
492
496
500
504
508
512
516
520
524
528
532
536
540
544
548
552
556
560
564
568
572
576
580
584
588
592
596
600
604
608
612
616
620
624
628
632
636
640
644
648
652
656
660
664
668
672
676
680
684
688
692
696
700
704
708
712
716
720
724
728
732
736
740
744
748
752
756
760
764
768
772
776
780
784
788
792
796
800
804
808
812
816
820
824
828
832
836
840
844
848
852
856
860
864
868
872
876
880
884
888
892
896
900
904
908
912
916
920
924
928
932
936
940
944
948
952
956
960
964
968
972
976
980
984
988
992
996
1000
1004
1008
1012
1016
1020
1024
1028
1032
1036
1040
1044
1048
1052
1056
1060
1064
1068
1072
1076
1080
1084
1088
1092
1096
1100
1104
1108
1112
1116
1120
1124
1128
1132
1136
1140
1144
1148
1152
1156
1160
1164
1168
1172
1176
1180
1184
1188
1192
1196
1200
1204
1208
1212
1216
1220
1224
1228
1232
1236
1240
1244
1248
1252
1256
1260
1264
1268
1272
1276
1280
1284
1288
1292
1296
1300
1304
1308
1312
1316
1320
1324
1328
1332
1336
1340
1344
1348
1352
1356
1360
1364
1368
1372
1376
1380
1384
1388
1392
1396
1400
1404
1408
1412
1416
1420
1424
1428
1432
1436
1440
1444
1448
1452
1456
1460
1464
1468
1472
1476
1480
1484
1488
1492
1496
1500
1504
1508
1512
1516
1520
1524
1528
1532
1536
1540
1544
1548
1552
1556
1560
1564
1568
1572
1576
1580
1584
1588
1592
1596
1600
1604
1608
1612
1616
1620
1624
1628
1632
1636
1640
1644
1648
1652
1656
1660
1664
1668
1672
1676
1680
1684
1688
1692
1696
1700
1704
1708
1712
1716
1720
1724
1728
1732
1736
1740
1744
1748
1752
1756
1760
1764
1768
1772
1776
1780
1784
1788
1792
1796
1800
1804
1808
1812
1816
1820
1824
1828
1832
1836
1840
1844
1848
1852
1856
1860
1864
1868
1872
1876
1880
1884
1888
1892
1896
1900
1904
1908
1912
1916
1920
1924
1928
1932
1936
1940
1944
1948
1952
1956
1960
1964
1968
1972
1976
1980
1984
1988
1992
1996
2000
2004
2008
2012
2016
2020
2024
2028
2032
2036
2040
2044
2048
2052
2056
2060
2064
2068
2072
2076
2080
2084
2088
2092
2096
2100
2104
2108
2112
2116
2120
2124
2128
2132
2136
2140
2144
2148
2152
2156
2160
2164
2168
2172
2176
2180
2184
2188
2192
2196
2200
2204
2208
2212
2216
2220
2224
2228
2232
2236
2240
2244
2248
2252
2256
2260
2264
2268
2272
2276
2280
2284
2288
2292
2296
2300
2304
2308
2312
2316
2320
2324
2328
2332
2336
2340
2344
2348
2352
2356
2360
2364
2368
2372
2376
2380
2384
2388
2392
2396
2400
2404
2408
2412
2416
2420
2424
2428
2432
2436
2440
2444
2448
2452
2456
2460
2464
2468
2472
2476
2480
2484
2488
2492
2496
2500
2504
2508
2512
2516
2520
2524
2528
2532
2536
2540
2544
2548
2552
2556
2560
2564
2568
2572
2576
2580
2584
2588
2592
2596
2600
2604
2608
2612
2616
2620
2624
2628
2632
2636
2640
2644
2648
2652
2656
2660
2664
2668
2672
2676
2680
2684
2688
2692
2696
2700
2704
2708
2712
2716
2720
2724
2728
2732
2736
2740
2744
2748
2752
2756
2760
2764
2768
2772
2776
2780
2784
2788
2792
2796
2800
2804
2808
2812
2816
2820
2824
2828
2832
2836
2840
2844
2848
2852
2856
2860
2864
2868
2872
2876
2880
2884
2888
2892
2896
2900
2904
2908
2912
2916
2920
2924
2928
2932
2936
2940
2944
2948
2952
2956
2960
2964
2968
2972
2976
2980
2984
2988
2992
2996
3000
3004
3008
3012
3016
3020
3024
3028
3032
3036
3040
3044
3048
3052
3056
3060
3064
3068
3072
3076
3080
3084
3088
3092
3096
3100
3104
3108
3112
3116
3120
3124
3128
3132
3136
3140
3144
3148
3152
3156
3160
3162
3164
3166
3168
3170
3172
3174
3176
3178
3180
J0 13
176 1
177 1
178 1
179 1
180 1
181 1
182 1
183 1
184 1
185 1
186 1
187 1
188 1
J1 13
189 1
190 1
191 1
192 1
193 1
194 1
195 1
196 1
197 1
198 1
199 1
200 1
201 1
J2 13
202 1
203 1
204 1
205 1
206 1
207 1
208 1
209 1
210 1
211 1
212 1
213 1
214 1
J3 13
215 1
216 1
217 1
218 1
219 1
220 1
221 1
222 1
223 1
224 1
225 1
226 1
227 1
J4 13
228 1
229 1
230 1
231 1
232 1
233 1
234 1
235 1
236 1
237 1
238 1
239 1
240 1
J5 13
241 1
242 1
243 1
244 1
245 1
246 1
247 1
248 1
249 1
250 1
251 1
252 1
253 1
J6 13
254 1
255 1
256 1
257 1
258 1
259 1
260 1
261 1
262 1
263 1
264 1
265 1
266 1
J7 13
267 1
268 1
269 1
270 1
271 1
272 1
273 1
274 1
275 1
276 1
277 1
278 1
279 1
J8 13
280 1
281 1
282 1
283 1
284 1
285 1
286 1
287 1
288 1
289 1
290 1
291 1
292 1
J9 13
293 1
294 1
295 1
296 1
297 1
298 1
299 1
300 1
301 1
302 1
303 1
304 1
305 1
J10 13
306 1
307 1
308 1
309 1
310 1
311 1
312 1
313 1
314 1
315 1
316 1
317 1
318 1
J11 13
319 1
320 1
321 1
322 1
323 1
324 1
325 1
326 1
327 1
328 1
329 1
330 1
331 1
J12 13
332 1
333 1
334 1
335 1
336 1
337 1
338 1
339 1
340 1
341 1
342 1
343 1
344 1
J13 13
345 1
346 1
347 1
348 1
349 1
350 1
351 1
352 1
353 1
354 1
355 1
356 1
357 1
J14 13
358 1
359 1
360 1
361 1
362 1
363 1
364 1
365 1
366 1
367 1
368 1
369 1
370 1
J15 13
371 1
372 1
373 1
374 1
375 1
376 1
377 1
378 1
379 1
380 1
381 1
382 1
383 1
J16 30
176 -1
189 -1
202 -1
215 -1
228 -1
241 -1
254 -1
267 -1
280 -1
293 -1
306 -1
319 -1
332 -1
345 -1
358 -1
371 -1
384 1
385 1
386 1
387 1
388 1
389 1
390 1
391 1
392 1
393 1
394 1
395 1
396 1
397 1
J17 30
177 -1
190 -1
203 -1
216 -1
229 -1
242 -1
255 -1
268 -1
281 -1
294 -1
307 -1
320 -1
333 -1
346 -1
359 -1
372 -1
398 1
399 1
400 1
401 1
402 1
403 1
404 1
405 1
406 1
407 1
408 1
409 1
410 1
411 1
J18 30
178 -1
191 -1
204 -1
217 -1
230 -1
243 -1
256 -1
269 -1
282 -1
295 -1
308 -1
321 -1
334 -1
347 -1
360 -1
373 -1
412 1
413 1
414 1
415 1
416 1
417 1
418 1
419 1
420 1
421 1
422 1
423 1
424 1
425 1
J19 30
179 -1
192 -1
205 -1
218 -1
231 -1
244 -1
257 -1
270 -1
283 -1
296 -1
309 -1
322 -1
335 -1
348 -1
361 -1
374 -1
426 1
427 1
428 1
429 1
430 1
431 1
432 1
433 1
434 1
435 1
436 1
437 1
438 1
439 1
J20 30
180 -1
193 -1
206 -1
219 -1
232 -1
245 -1
258 -1
271 -1
284 -1
297 -1
310 -1
323 -1
336 -1
349 -1
362 -1
375 -1
440 1
441 1
442 1
443 1
444 1
445 1
446 1
447 1
448 1
449 1
450 1
451 1
452 1
453 1
J21 30
181 -1
194 -1
207 -1
220 -1
233 -1
246 -1
259 -1
272 -1
285 -1
298 -1
311 -1
324 -1
337 -1
350 -1
363 -1
376 -1
454 1
455 1
456 1
457 1
458 1
459 1
460 1
461 1
462 1
463 1
464 1
465 1
466 1
467 1
J22 30
182 -1
195 -1
208 -1
221 -1
234 -1
247 -1
260 -1
273 -1
286 -1
299 -1
312 -1
325 -1
338 -1
351 -1
364 -1
377 -1
468 1
469 1
470 1
471 1
472 1
473 1
474 1
475 1
476 1
477 1
478 1
479 1
480 1
481 1
J23 30
183 -1
196 -1
209 -1
222 -1
235 -1
248 -1
261 -1
274 -1
287 -1
300 -1
313 -1
326 -1
339 -1
352 -1
365 -1
378 -1
482 1
483 1
484 1
485 1
486 1
487 1
488 1
489 1
490 1
491 1
492 1
493 1
494 1
495 1
J24 30
184 -1
197 -1
210 -1
223 -1
236 -1
249 -1
262 -1
275 -1
288 -1
301 -1
314 -1
327 -1
340 -1
353 -1
366 -1
379 -1
496 1
497 1
498 1
499 1
500 1
501 1
502 1
503 1
504 1
505 1
506 1
507 1
508 1
509 1
J25 30
185 -1
198 -1
211 -1
224 -1
237 -1
250 -1
263 -1
276 -1
289 -1
302 -1
315 -1
328 -1
341 -1
354 -1
367 -1
380 -1
510 1
511 1
512 1
513 1
514 1
515 1
516 1
517 1
518 1
519 1
520 1
521 1
522 1
523 1
J26 30
186 -1
199 -1
212 -1
225 -1
238 -1
251 -1
264 -1
277 -1
290 -1
303 -1
316 -1
329 -1
342 -1
355 -1
368 -1
381 -1
524 1
525 1
526 1
527 1
528 1
529 1
530 1
531 1
532 1
533 1
534 1
535 1
536 1
537 1
J27 30
187 -1
200 -1
213 -1
226 -1
239 -1
252 -1
265 -1
278 -1
291 -1
304 -1
317 -1
330 -1
343 -1
356 -1
369 -1
382 -1
538 1
539 1
540 1
541 1
542 1
543 1
544 1
545 1
546 1
547 1
548 1
549 1
550 1
551 1
J28 30
188 -1
201 -1
214 -1
227 -1
240 -1
253 -1
266 -1
279 -1
292 -1
305 -1
318 -1
331 -1
344 -1
357 -1
370 -1
383 -1
552 1
553 1
554 1
555 1
556 1
557 1
558 1
559 1
560 1
561 1
562 1
563 1
564 1
565 1
J29 29
384 -1
398 -1
412 -1
426 -1
440 -1
454 -1
468 -1
482 -1
496 -1
510 -1
524 -1
538 -1
552 -1
566 1
567 1
568 1
569 1
570 1
571 1
572 1
573 1
574 1
575 1
576 1
577 1
578 1
579 1
580 1
581 1
J30 29
385 -1
399 -1
413 -1
427 -1
441 -1
455 -1
469 -1
483 -1
497 -1
511 -1
525 -1
539 -1
553 -1
582 1
583 1
584 1
585 1
586 1
587 1
588 1
589 1
590 1
591 1
592 1
593 1
594 1
595 1
596 1
597 1
J31 29
386 -1
400 -1
414 -1
428 -1
442 -1
456 -1
470 -1
484 -1
498 -1
512 -1
526 -1
540 -1
554 -1
598 1
599 1
600 1
601 1
602 1
603 1
604 1
605 1
606 1
607 1
608 1
609 1
610 1
611 1
612 1
613 1
J32 29
387 -1
401 -1
415 -1
429 -1
443 -1
457 -1
471 -1
485 -1
499 -1
513 -1
527 -1
541 -1
555 -1
614 1
615 1
616 1
617 1
618 1
619 1
620 1
621 1
622 1
623 1
624 1
625 1
626 1
627 1
628 1
629 1
J33 29
388 -1
402 -1
416 -1
430 -1
444 -1
458 -1
472 -1
486 -1
500 -1
514 -1
528 -1
542 -1
556 -1
630 1
631 1
632 1
633 1
634 1
635 1
636 1
637 1
638 1
639 1
640 1
641 1
642 1
643 1
644 1
645 1
J34 29
389 -1
403 -1
417 -1
431 -1
445 -1
459 -1
473 -1
487 -1
501 -1
515 -1
529 -1
543 -1
557 -1
646 1
647 1
648 1
649 1
650 1
651 1
652 1
653 1
654 1
655 1
656 1
657 1
658 1
659 1
660 1
661 1
J35 29
390 -1
404 -1
418 -1
432 -1
446 -1
460 -1
474 -1
488 -1
502 -1
516 -1
530 -1
544 -1
558 -1
662 1
663 1
664 1
665 1
666 1
667 1
668 1
669 1
670 1
671 1
672 1
673 1
674 1
675 1
676 1
677 1
J36 29
391 -1
405 -1
419 -1
433 -1
447 -1
461 -1
475 -1
489 -1
503 -1
517 -1
531 -1
545 -1
559 -1
678 1
679 1
680 1
681 1
682 1
683 1
684 1
685 1
686 1
687 1
688 1
689 1
690 1
691 1
692 1
693 1
J37 29
392 -1
406 -1
420 -1
434 -1
448 -1
462 -1
476 -1
490 -1
504 -1
518 -1
532 -1
546 -1
560 -1
694 1
695 1
696 1
697 1
698 1
699 1
700 1
701 1
702 1
703 1
704 1
705 1
706 1
707 1
708 1
709 1
J38 29
393 -1
407 -1
421 -1
435 -1
449 -1
463 -1
477 -1
491 -1
505 -1
519 -1
533 -1
547 -1
561 -1
710 1
711 1
712 1
713 1
714 1
715 1
716 1
717 1
718 1
719 1
720 1
721 1
722 1
723 1
724 1
725 1
J39 29
394 -1
408 -1
422 -1
436 -1
450 -1
464 -1
478 -1
492 -1
506 -1
520 -1
534 -1
548 -1
562 -1
726 1
727 1
728 1
729 1
730 1
731 1
732 1
733 1
734 1
735 1
736 1
737 1
738 1
739 1
740 1
741 1
J40 29
395 -1
409 -1
423 -1
437 -1
451 -1
465 -1
479 -1
493 -1
507 -1
521 -1
535 -1
549 -1
563 -1
742 1
743 1
744 1
745 1
746 1
747 1
748 1
749 1
750 1
751 1
752 1
753 1
754 1
755 1
756 1
757 1
J41 29
396 -1
410 -1
424 -1
438 -1
452 -1
466 -1
480 -1
494 -1
508 -1
522 -1
536 -1
550 -1
564 -1
758 1
759 1
760 1
761 1
762 1
763 1
764 1
765 1
766 1
767 1
768 1
769 1
770 1
771 1
772 1
773 1
J42 29
397 -1
411 -1
425 -1
439 -1
453 -1
467 -1
481 -1
495 -1
509 -1
523 -1
537 -1
551 -1
565 -1
774 1
775 1
776 1
777 1
778 1
779 1
780 1
781 1
782 1
783 1
784 1
785 1
786 1
787 1
788 1
789 1
J43 25
0 1
1 1
2 1
3 1
4 1
5 1
6 1
7 1
8 1
9 1
10 1
566 -1
582 -1
598 -1
614 -1
630 -1
646 -1
662 -1
678 -1
694 -1
710 -1
726 -1
742 -1
758 -1
774 -1
J44 25
11 1
12 1
13 1
14 1
15 1
16 1
17 1
18 1
19 1
20 1
21 1
567 -1
583 -1
599 -1
615 -1
631 -1
647 -1
663 -1
679 -1
695 -1
711 -1
727 -1
743 -1
759 -1
775 -1
J45 25
22 1
23 1
24 1
25 1
26 1
27 1
28 1
29 1
30 1
31 1
32 1
568 -1
584 -1
600 -1
616 -1
632 -1
648 -1
664 -1
680 -1
696 -1
712 -1
728 -1
744 -1
760 -1
776 -1
J46 25
33 1
34 1
35 1
36 1
37 1
38 1
39 1
40 1
41 1
42 1
43 1
569 -1
585 -1
601 -1
617 -1
633 -1
649 -1
665 -1
681 -1
697 -1
713 -1
729 -1
745 -1
761 -1
777 -1
J47 25
44 1
45 1
46 1
47 1
48 1
49 1
50 1
51 1
52 1
53 1
54 1
570 -1
586 -1
602 -1
618 -1
634 -1
650 -1
666 -1
682 -1
698 -1
714 -1
730 -1
746 -1
762 -1
778 -1
J48 25
55 1
56 1
57 1
58 1
59 1
60 1
61 1
62 1
63 1
64 1
65 1
571 -1
587 -1
603 -1
619 -1
635 -1
651 -1
667 -1
683 -1
699 -1
715 -1
731 -1
747 -1
763 -1
779 -1
J49 25
66 1
67 1
68 1
69 1
70 1
71 1
72 1
73 1
74 1
75 1
76 1
572 -1
588 -1
604 -1
620 -1
636 -1
652 -1
668 -1
684 -1
700 -1
716 -1
732 -1
748 -1
764 -1
780 -1
J50 25
77 1
78 1
79 1
80 1
81 1
82 1
83 1
84 1
85 1
86 1
87 1
573 -1
589 -1
605 -1
621 -1
637 -1
653 -1
669 -1
685 -1
701 -1
717 -1
733 -1
749 -1
765 -1
781 -1
J51 25
88 1
89 1
90 1
91 1
92 1
93 1
94 1
95 1
96 1
97 1
98 1
574 -1
590 -1
606 -1
622 -1
638 -1
654 -1
670 -1
686 -1
702 -1
718 -1
734 -1
750 -1
766 -1
782 -1
J52 25
99 1
100 1
101 1
102 1
103 1
104 1
105 1
106 1
107 1
108 1
109 1
575 -1
591 -1
607 -1
623 -1
639 -1
655 -1
671 -1
687 -1
703 -1
719 -1
735 -1
751 -1
767 -1
783 -1
J53 25
110 1
111 1
112 1
113 1
114 1
115 1
116 1
117 1
118 1
119 1
120 1
576 -1
592 -1
608 -1
624 -1
640 -1
656 -1
672 -1
688 -1
704 -1
720 -1
736 -1
752 -1
768 -1
784 -1
J54 25
121 1
122 1
123 1
124 1
125 1
126 1
127 1
128 1
129 1
130 1
131 1
577 -1
593 -1
609 -1
625 -1
641 -1
657 -1
673 -1
689 -1
705 -1
721 -1
737 -1
753 -1
769 -1
785 -1
J55 25
132 1
133 1
134 1
135 1
136 1
137 1
138 1
139 1
140 1
141 1
142 1
578 -1
594 -1
610 -1
626 -1
642 -1
658 -1
674 -1
690 -1
706 -1
722 -1
738 -1
754 -1
770 -1
786 -1
J56 25
143 1
144 1
145 1
146 1
147 1
148 1
149 1
150 1
151 1
152 1
153 1
579 -1
595 -1
611 -1
627 -1
643 -1
659 -1
675 -1
691 -1
707 -1
723 -1
739 -1
755 -1
771 -1
787 -1
J57 25
154 1
155 1
156 1
157 1
158 1
159 1
160 1
161 1
162 1
163 1
164 1
580 -1
596 -1
612 -1
628 -1
644 -1
660 -1
676 -1
692 -1
708 -1
724 -1
740 -1
756 -1
772 -1
788 -1
J58 25
165 1
166 1
167 1
168 1
169 1
170 1
171 1
172 1
173 1
174 1
175 1
581 -1
597 -1
613 -1
629 -1
645 -1
661 -1
677 -1
693 -1
709 -1
725 -1
741 -1
757 -1
773 -1
789 -1
J59 17
0 -1
11 -1
22 -1
33 -1
44 -1
55 -1
66 -1
77 -1
88 -1
99 -1
110 -1
121 -1
132 -1
143 -1
154 -1
165 -1
790 -1
J60 17
1 -1
12 -1
23 -1
34 -1
45 -1
56 -1
67 -1
78 -1
89 -1
100 -1
111 -1
122 -1
133 -1
144 -1
155 -1
166 -1
791 -1
J61 17
2 -1
13 -1
24 -1
35 -1
46 -1
57 -1
68 -1
79 -1
90 -1
101 -1
112 -1
123 -1
134 -1
145 -1
156 -1
167 -1
792 -1
J62 17
3 -1
14 -1
25 -1
36 -1
47 -1
58 -1
69 -1
80 -1
91 -1
102 -1
113 -1
124 -1
135 -1
146 -1
157 -1
168 -1
793 -1
J63 17
4 -1
15 -1
26 -1
37 -1
48 -1
59 -1
70 -1
81 -1
92 -1
103 -1
114 -1
125 -1
136 -1
147 -1
158 -1
169 -1
794 -1
J64 17
5 -1
16 -1
27 -1
38 -1
49 -1
60 -1
71 -1
82 -1
93 -1
104 -1
115 -1
126 -1
137 -1
148 -1
159 -1
170 -1
795 -1
J65 17
6 -1
17 -1
28 -1
39 -1
50 -1
61 -1
72 -1
83 -1
94 -1
105 -1
116 -1
127 -1
138 -1
149 -1
160 -1
171 -1
796 -1
J66 17
7 -1
18 -1
29 -1
40 -1
51 -1
62 -1
73 -1
84 -1
95 -1
106 -1
117 -1
128 -1
139 -1
150 -1
161 -1
172 -1
797 -1
J67 17
8 -1
19 -1
30 -1
41 -1
52 -1
63 -1
74 -1
85 -1
96 -1
107 -1
118 -1
129 -1
140 -1
151 -1
162 -1
173 -1
798 -1
J68 17
9 -1
20 -1
31 -1
42 -1
53 -1
64 -1
75 -1
86 -1
97 -1
108 -1
119 -1
130 -1
141 -1
152 -1
163 -1
174 -1
799 -1
J69 17
10 -1
21 -1
32 -1
43 -1
54 -1
65 -1
76 -1
87 -1
98 -1
109 -1
120 -1
131 -1
142 -1
153 -1
164 -1
175 -1
800 -1
J70 11
790 1
791 1
792 1
793 1
794 1
795 1
796 1
797 1
798 1
799 1
800 1
J71 16
176 1
189 1
202 1
215 1
228 1
241 1
254 1
267 1
280 1
293 1
306 1
319 1
332 1
345 1
358 1
371 1
J72 16
177 1
190 1
203 1
216 1
229 1
242 1
255 1
268 1
281 1
294 1
307 1
320 1
333 1
346 1
359 1
372 1
J73 16
178 1
191 1
204 1
217 1
230 1
243 1
256 1
269 1
282 1
295 1
308 1
321 1
334 1
347 1
360 1
373 1
J74 16
179 1
192 1
205 1
218 1
231 1
244 1
257 1
270 1
283 1
296 1
309 1
322 1
335 1
348 1
361 1
374 1
J75 16
180 1
193 1
206 1
219 1
232 1
245 1
258 1
271 1
284 1
297 1
310 1
323 1
336 1
349 1
362 1
375 1
J76 16
181 1
194 1
207 1
220 1
233 1
246 1
259 1
272 1
285 1
298 1
311 1
324 1
337 1
350 1
363 1
376 1
J77 16
182 1
195 1
208 1
221 1
234 1
247 1
260 1
273 1
286 1
299 1
312 1
325 1
338 1
351 1
364 1
377 1
J78 16
183 1
196 1
209 1
222 1
235 1
248 1
261 1
274 1
287 1
300 1
313 1
326 1
339 1
352 1
365 1
378 1
J79 16
184 1
197 1
210 1
223 1
236 1
249 1
262 1
275 1
288 1
301 1
314 1
327 1
340 1
353 1
366 1
379 1
J80 16
185 1
198 1
211 1
224 1
237 1
250 1
263 1
276 1
289 1
302 1
315 1
328 1
341 1
354 1
367 1
380 1
J81 16
186 1
199 1
212 1
225 1
238 1
251 1
264 1
277 1
290 1
303 1
316 1
329 1
342 1
355 1
368 1
381 1
J82 16
187 1
200 1
213 1
226 1
239 1
252 1
265 1
278 1
291 1
304 1
317 1
330 1
343 1
356 1
369 1
382 1
J83 16
188 1
201 1
214 1
227 1
240 1
253 1
266 1
279 1
292 1
305 1
318 1
331 1
344 1
357 1
370 1
383 1
J84 13
384 1
398 1
412 1
426 1
440 1
454 1
468 1
482 1
496 1
510 1
524 1
538 1
552 1
J85 13
385 1
399 1
413 1
427 1
441 1
455 1
469 1
483 1
497 1
511 1
525 1
539 1
553 1
J86 13
386 1
400 1
414 1
428 1
442 1
456 1
470 1
484 1
498 1
512 1
526 1
540 1
554 1
J87 13
387 1
401 1
415 1
429 1
443 1
457 1
471 1
485 1
499 1
513 1
527 1
541 1
555 1
J88 13
388 1
402 1
416 1
430 1
444 1
458 1
472 1
486 1
500 1
514 1
528 1
542 1
556 1
J89 13
389 1
403 1
417 1
431 1
445 1
459 1
473 1
487 1
501 1
515 1
529 1
543 1
557 1
J90 13
390 1
404 1
418 1
432 1
446 1
460 1
474 1
488 1
502 1
516 1
530 1
544 1
558 1
J91 13
391 1
405 1
419 1
433 1
447 1
461 1
475 1
489 1
503 1
517 1
531 1
545 1
559 1
J92 13
392 1
406 1
420 1
434 1
448 1
462 1
476 1
490 1
504 1
518 1
532 1
546 1
560 1
J93 13
393 1
407 1
421 1
435 1
449 1
463 1
477 1
491 1
505 1
519 1
533 1
547 1
561 1
J94 13
394 1
408 1
422 1
436 1
450 1
464 1
478 1
492 1
506 1
520 1
534 1
548 1
562 1
J95 13
395 1
409 1
423 1
437 1
451 1
465 1
479 1
493 1
507 1
521 1
535 1
549 1
563 1
J96 13
396 1
410 1
424 1
438 1
452 1
466 1
480 1
494 1
508 1
522 1
536 1
550 1
564 1
J97 13
397 1
411 1
425 1
439 1
453 1
467 1
481 1
495 1
509 1
523 1
537 1
551 1
565 1
J98 14
566 1
582 1
598 1
614 1
630 1
646 1
662 1
678 1
694 1
710 1
726 1
742 1
758 1
774 1
J99 14
567 1
583 1
599 1
615 1
631 1
647 1
663 1
679 1
695 1
711 1
727 1
743 1
759 1
775 1
J100 14
568 1
584 1
600 1
616 1
632 1
648 1
664 1
680 1
696 1
712 1
728 1
744 1
760 1
776 1
J101 14
569 1
585 1
601 1
617 1
633 1
649 1
665 1
681 1
697 1
713 1
729 1
745 1
761 1
777 1
J102 14
570 1
586 1
602 1
618 1
634 1
650 1
666 1
682 1
698 1
714 1
730 1
746 1
762 1
778 1
J103 14
571 1
587 1
603 1
619 1
635 1
651 1
667 1
683 1
699 1
715 1
731 1
747 1
763 1
779 1
J104 14
572 1
588 1
604 1
620 1
636 1
652 1
668 1
684 1
700 1
716 1
732 1
748 1
764 1
780 1
J105 14
573 1
589 1
605 1
621 1
637 1
653 1
669 1
685 1
701 1
717 1
733 1
749 1
765 1
781 1
J106 14
574 1
590 1
606 1
622 1
638 1
654 1
670 1
686 1
702 1
718 1
734 1
750 1
766 1
782 1
J107 14
575 1
591 1
607 1
623 1
639 1
655 1
671 1
687 1
703 1
719 1
735 1
751 1
767 1
783 1
J108 14
576 1
592 1
608 1
624 1
640 1
656 1
672 1
688 1
704 1
720 1
736 1
752 1
768 1
784 1
J109 14
577 1
593 1
609 1
625 1
641 1
657 1
673 1
689 1
705 1
721 1
737 1
753 1
769 1
785 1
J110 14
578 1
594 1
610 1
626 1
642 1
658 1
674 1
690 1
706 1
722 1
738 1
754 1
770 1
786 1
J111 14
579 1
595 1
611 1
627 1
643 1
659 1
675 1
691 1
707 1
723 1
739 1
755 1
771 1
787 1
J112 14
580 1
596 1
612 1
628 1
644 1
660 1
676 1
692 1
708 1
724 1
740 1
756 1
772 1
788 1
J113 14
581 1
597 1
613 1
629 1
645 1
661 1
677 1
693 1
709 1
725 1
741 1
757 1
773 1
789 1
J114 16
0 1
11 1
22 1
33 1
44 1
55 1
66 1
77 1
88 1
99 1
110 1
121 1
132 1
143 1
154 1
165 1
J115 16
1 1
12 1
23 1
34 1
45 1
56 1
67 1
78 1
89 1
100 1
111 1
122 1
133 1
144 1
155 1
166 1
J116 16
2 1
13 1
24 1
35 1
46 1
57 1
68 1
79 1
90 1
101 1
112 1
123 1
134 1
145 1
156 1
167 1
J117 16
3 1
14 1
25 1
36 1
47 1
58 1
69 1
80 1
91 1
102 1
113 1
124 1
135 1
146 1
157 1
168 1
J118 16
4 1
15 1
26 1
37 1
48 1
59 1
70 1
81 1
92 1
103 1
114 1
125 1
136 1
147 1
158 1
169 1
J119 16
5 1
16 1
27 1
38 1
49 1
60 1
71 1
82 1
93 1
104 1
115 1
126 1
137 1
148 1
159 1
170 1
J120 16
6 1
17 1
28 1
39 1
50 1
61 1
72 1
83 1
94 1
105 1
116 1
127 1
138 1
149 1
160 1
171 1
J121 16
7 1
18 1
29 1
40 1
51 1
62 1
73 1
84 1
95 1
106 1
117 1
128 1
139 1
150 1
161 1
172 1
J122 16
8 1
19 1
30 1
41 1
52 1
63 1
74 1
85 1
96 1
107 1
118 1
129 1
140 1
151 1
162 1
173 1
J123 16
9 1
20 1
31 1
42 1
53 1
64 1
75 1
86 1
97 1
108 1
119 1
130 1
141 1
152 1
163 1
174 1
J124 16
10 1
21 1
32 1
43 1
54 1
65 1
76 1
87 1
98 1
109 1
120 1
131 1
142 1
153 1
164 1
175 1
J125 13
176 1
177 1
178 1
179 1
180 1
181 1
182 1
183 1
184 1
185 1
186 1
187 1
188 1
J126 13
189 1
190 1
191 1
192 1
193 1
194 1
195 1
196 1
197 1
198 1
199 1
200 1
201 1
J127 13
202 1
203 1
204 1
205 1
206 1
207 1
208 1
209 1
210 1
211 1
212 1
213 1
214 1
J128 13
215 1
216 1
217 1
218 1
219 1
220 1
221 1
222 1
223 1
224 1
225 1
226 1
227 1
J129 13
228 1
229 1
230 1
231 1
232 1
233 1
234 1
235 1
236 1
237 1
238 1
239 1
240 1
J130 13
241 1
242 1
243 1
244 1
245 1
246 1
247 1
248 1
249 1
250 1
251 1
252 1
253 1
J131 13
254 1
255 1
256 1
257 1
258 1
259 1
260 1
261 1
262 1
263 1
264 1
265 1
266 1
J132 13
267 1
268 1
269 1
270 1
271 1
272 1
273 1
274 1
275 1
276 1
277 1
278 1
279 1
J133 13
280 1
281 1
282 1
283 1
284 1
285 1
286 1
287 1
288 1
289 1
290 1
291 1
292 1
J134 13
293 1
294 1
295 1
296 1
297 1
298 1
299 1
300 1
301 1
302 1
303 1
304 1
305 1
J135 13
306 1
307 1
308 1
309 1
310 1
311 1
312 1
313 1
314 1
315 1
316 1
317 1
318 1
J136 13
319 1
320 1
321 1
322 1
323 1
324 1
325 1
326 1
327 1
328 1
329 1
330 1
331 1
J137 13
332 1
333 1
334 1
335 1
336 1
337 1
338 1
339 1
340 1
341 1
342 1
343 1
344 1
J138 13
345 1
346 1
347 1
348 1
349 1
350 1
351 1
352 1
353 1
354 1
355 1
356 1
357 1
J139 13
358 1
359 1
360 1
361 1
362 1
363 1
364 1
365 1
366 1
367 1
368 1
369 1
370 1
J140 13
371 1
372 1
373 1
374 1
375 1
376 1
377 1
378 1
379 1
380 1
381 1
382 1
383 1
J141 14
384 1
385 1
386 1
387 1
388 1
389 1
390 1
391 1
392 1
393 1
394 1
395 1
396 1
397 1
J142 14
398 1
399 1
400 1
401 1
402 1
403 1
404 1
405 1
406 1
407 1
408 1
409 1
410 1
411 1
J143 14
412 1
413 1
414 1
415 1
416 1
417 1
418 1
419 1
420 1
421 1
422 1
423 1
424 1
425 1
J144 14
426 1
427 1
428 1
429 1
430 1
431 1
432 1
433 1
434 1
435 1
436 1
437 1
438 1
439 1
J145 14
440 1
441 1
442 1
443 1
444 1
445 1
446 1
447 1
448 1
449 1
450 1
451 1
452 1
453 1
J146 14
454 1
455 1
456 1
457 1
458 1
459 1
460 1
461 1
462 1
463 1
464 1
465 1
466 1
467 1
J147 14
468 1
469 1
470 1
471 1
472 1
473 1
474 1
475 1
476 1
477 1
478 1
479 1
480 1
481 1
J148 14
482 1
483 1
484 1
485 1
486 1
487 1
488 1
489 1
490 1
491 1
492 1
493 1
494 1
495 1
J149 14
496 1
497 1
498 1
499 1
500 1
501 1
502 1
503 1
504 1
505 1
506 1
507 1
508 1
509 1
J150 14
510 1
511 1
512 1
513 1
514 1
515 1
516 1
517 1
518 1
519 1
520 1
521 1
522 1
523 1
J151 14
524 1
525 1
526 1
527 1
528 1
529 1
530 1
531 1
532 1
533 1
534 1
535 1
536 1
537 1
J152 14
538 1
539 1
540 1
541 1
542 1
543 1
544 1
545 1
546 1
547 1
548 1
549 1
550 1
551 1
J153 14
552 1
553 1
554 1
555 1
556 1
557 1
558 1
559 1
560 1
561 1
562 1
563 1
564 1
565 1
J154 16
566 1
567 1
568 1
569 1
570 1
571 1
572 1
573 1
574 1
575 1
576 1
577 1
578 1
579 1
580 1
581 1
J155 16
582 1
583 1
584 1
585 1
586 1
587 1
588 1
589 1
590 1
591 1
592 1
593 1
594 1
595 1
596 1
597 1
J156 16
598 1
599 1
600 1
601 1
602 1
603 1
604 1
605 1
606 1
607 1
608 1
609 1
610 1
611 1
612 1
613 1
J157 16
614 1
615 1
616 1
617 1
618 1
619 1
620 1
621 1
622 1
623 1
624 1
625 1
626 1
627 1
628 1
629 1
J158 16
630 1
631 1
632 1
633 1
634 1
635 1
636 1
637 1
638 1
639 1
640 1
641 1
642 1
643 1
644 1
645 1
J159 16
646 1
647 1
648 1
649 1
650 1
651 1
652 1
653 1
654 1
655 1
656 1
657 1
658 1
659 1
660 1
661 1
J160 16
662 1
663 1
664 1
665 1
666 1
667 1
668 1
669 1
670 1
671 1
672 1
673 1
674 1
675 1
676 1
677 1
J161 16
678 1
679 1
680 1
681 1
682 1
683 1
684 1
685 1
686 1
687 1
688 1
689 1
690 1
691 1
692 1
693 1
J162 16
694 1
695 1
696 1
697 1
698 1
699 1
700 1
701 1
702 1
703 1
704 1
705 1
706 1
707 1
708 1
709 1
J163 16
710 1
711 1
712 1
713 1
714 1
715 1
716 1
717 1
718 1
719 1
720 1
721 1
722 1
723 1
724 1
725 1
J164 16
726 1
727 1
728 1
729 1
730 1
731 1
732 1
733 1
734 1
735 1
736 1
737 1
738 1
739 1
740 1
741 1
J165 16
742 1
743 1
744 1
745 1
746 1
747 1
748 1
749 1
750 1
751 1
752 1
753 1
754 1
755 1
756 1
757 1
J166 16
758 1
759 1
760 1
761 1
762 1
763 1
764 1
765 1
766 1
767 1
768 1
769 1
770 1
771 1
772 1
773 1
J167 16
774 1
775 1
776 1
777 1
778 1
779 1
780 1
781 1
782 1
783 1
784 1
785 1
786 1
787 1
788 1
789 1
J168 11
0 1
1 1
2 1
3 1
4 1
5 1
6 1
7 1
8 1
9 1
10 1
J169 11
11 1
12 1
13 1
14 1
15 1
16 1
17 1
18 1
19 1
20 1
21 1
J170 11
22 1
23 1
24 1
25 1
26 1
27 1
28 1
29 1
30 1
31 1
32 1
J171 11
33 1
34 1
35 1
36 1
37 1
38 1
39 1
40 1
41 1
42 1
43 1
J172 11
44 1
45 1
46 1
47 1
48 1
49 1
50 1
51 1
52 1
53 1
54 1
J173 11
55 1
56 1
57 1
58 1
59 1
60 1
61 1
62 1
63 1
64 1
65 1
J174 11
66 1
67 1
68 1
69 1
70 1
71 1
72 1
73 1
74 1
75 1
76 1
J175 11
77 1
78 1
79 1
80 1
81 1
82 1
83 1
84 1
85 1
86 1
87 1
J176 11
88 1
89 1
90 1
91 1
92 1
93 1
94 1
95 1
96 1
97 1
98 1
J177 11
99 1
100 1
101 1
102 1
103 1
104 1
105 1
106 1
107 1
108 1
109 1
J178 11
110 1
111 1
112 1
113 1
114 1
115 1
116 1
117 1
118 1
119 1
120 1
J179 11
121 1
122 1
123 1
124 1
125 1
126 1
127 1
128 1
129 1
130 1
131 1
J180 11
132 1
133 1
134 1
135 1
136 1
137 1
138 1
139 1
140 1
141 1
142 1
J181 11
143 1
144 1
145 1
146 1
147 1
148 1
149 1
150 1
151 1
152 1
153 1
J182 11
154 1
155 1
156 1
157 1
158 1
159 1
160 1
161 1
162 1
163 1
164 1
J183 11
165 1
166 1
167 1
168 1
169 1
170 1
171 1
172 1
173 1
174 1
175 1
G0 790
0 290
1 607
2 468
3 508
4 923
5 216
6 233
7 157
8 655
9 784
10 771
11 272
12 928
13 914
14 248
15 179
16 985
17 312
18 302
19 863
20 328
21 775
22 326
23 758
24 631
25 540
26 501
27 146
28 332
29 404
30 625
31 242
32 514
33 612
34 472
35 665
36 985
37 358
38 755
39 570
40 111
41 429
42 835
43 883
44 457
45 507
46 767
47 472
48 107
49 221
50 447
51 775
52 189
53 747
54 797
55 415
56 277
57 639
58 831
59 968
60 140
61 839
62 803
63 601
64 244
65 300
66 823
67 560
68 831
69 851
70 657
71 646
72 352
73 489
74 693
75 982
76 355
77 808
78 914
79 549
80 109
81 923
82 897
83 341
84 350
85 976
86 104
87 218
88 900
89 473
90 164
91 245
92 323
93 338
94 276
95 878
96 952
97 381
98 162
99 316
100 953
101 926
102 894
103 788
104 560
105 709
106 204
107 198
108 610
109 484
110 504
111 922
112 617
113 575
114 808
115 962
116 744
117 969
118 870
119 536
120 122
121 664
122 776
123 813
124 557
125 182
126 244
127 184
128 177
129 556
130 977
131 100
132 150
133 784
134 816
135 871
136 545
137 548
138 980
139 587
140 899
141 133
142 447
143 194
144 171
145 650
146 253
147 349
148 773
149 537
150 217
151 870
152 990
153 405
154 367
155 153
156 335
157 488
158 833
159 862
160 924
161 500
162 723
163 866
164 402
165 306
166 328
167 952
168 677
169 174
170 534
171 202
172 521
173 803
174 863
175 837
176 745
177 895
178 127
179 719
180 655
181 439
182 897
183 430
184 739
185 605
186 447
187 572
188 330
189 289
190 324
191 484
192 476
193 382
194 732
195 727
196 844
197 358
198 458
199 809
200 555
201 510
202 748
203 417
204 776
205 324
206 918
207 333
208 783
209 763
210 926
211 473
212 771
213 707
214 571
215 332
216 791
217 212
218 929
219 596
220 541
221 663
222 367
223 609
224 906
225 485
226 486
227 212
228 712
229 724
230 180
231 798
232 212
233 101
234 741
235 319
236 665
237 954
238 835
239 324
240 484
241 502
242 737
243 229
244 152
245 783
246 829
247 771
248 809
249 515
250 346
251 935
252 538
253 302
254 283
255 222
256 500
257 866
258 393
259 379
260 936
261 983
262 709
263 297
264 610
265 851
266 243
267 708
268 300
269 223
270 286
271 425
272 563
273 448
274 870
275 759
276 863
277 502
278 445
279 610
280 246
281 247
282 963
283 810
284 919
285 588
286 739
287 650
288 437
289 971
290 740
291 878
292 572
293 250
294 514
295 397
296 710
297 362
298 863
299 243
300 445
301 723
302 671
303 980
304 101
305 996
306 403
307 353
308 751
309 552
310 136
311 259
312 108
313 332
314 198
315 758
316 915
317 307
318 230
319 503
320 251
321 153
322 219
323 772
324 727
325 686
326 724
327 519
328 521
329 203
330 951
331 353
332 326
333 211
334 609
335 572
336 198
337 252
338 960
339 995
340 977
341 437
342 805
343 921
344 262
345 819
346 780
347 260
348 679
349 900
350 497
351 376
352 915
353 603
354 995
355 491
356 234
357 294
358 500
359 739
360 132
361 787
362 559
363 982
364 569
365 474
366 121
367 849
368 769
369 137
370 329
371 464
372 662
373 537
374 875
375 382
376 126
377 325
378 376
379 897
380 708
381 383
382 978
383 580
384 552
385 928
386 915
387 758
388 615
389 646
390 291
391 148
392 611
393 116
394 271
395 319
396 257
397 576
398 145
399 472
400 617
401 198
402 991
403 844
404 136
405 379
406 448
407 596
408 401
409 280
410 706
411 198
412 799
413 215
414 290
415 352
416 260
417 355
418 422
419 227
420 117
421 892
422 834
423 665
424 669
425 422
426 971
427 785
428 891
429 725
430 387
431 953
432 762
433 738
434 254
435 589
436 485
437 884
438 203
439 492
440 910
441 345
442 275
443 138
444 576
445 781
446 858
447 637
448 966
449 917
450 507
451 624
452 927
453 605
454 924
455 135
456 784
457 119
458 420
459 875
460 611
461 499
462 753
463 982
464 570
465 242
466 191
467 453
468 933
469 899
470 826
471 953
472 150
473 764
474 797
475 674
476 289
477 224
478 249
479 413
480 669
481 441
482 404
483 791
484 781
485 937
486 882
487 153
488 543
489 712
490 363
491 152
492 671
493 719
494 104
495 202
496 295
497 873
498 976
499 983
500 449
501 146
502 966
503 922
504 919
505 755
506 368
507 469
508 735
509 205
510 769
511 758
512 756
513 219
514 930
515 886
516 703
517 157
518 445
519 840
520 573
521 216
522 929
523 890
524 226
525 492
526 740
527 157
528 733
529 612
530 850
531 901
532 195
533 737
534 217
535 659
536 700
537 587
538 336
539 984
540 996
541 371
542 288
543 803
544 546
545 680
546 889
547 960
548 346
549 175
550 253
551 755
552 534
553 185
554 796
555 384
556 319
557 168
558 146
559 193
560 849
561 552
562 303
563 317
564 573
565 531
566 440
567 650
568 711
569 388
570 353
571 833
572 456
573 122
574 861
575 621
576 857
577 936
578 199
579 901
580 279
581 322
582 861
583 758
584 541
585 707
586 868
587 424
588 615
589 115
590 891
591 435
592 858
593 357
594 596
595 995
596 259
597 574
598 951
599 763
600 789
601 774
602 479
603 644
604 790
605 526
606 712
607 367
608 934
609 676
610 516
611 267
612 941
613 142
614 655
615 384
616 496
617 111
618 706
619 401
620 997
621 352
622 598
623 853
624 134
625 826
626 948
627 189
628 875
629 704
630 701
631 517
632 214
633 716
634 295
635 925
636 600
637 725
638 592
639 174
640 512
641 475
642 519
643 828
644 376
645 860
646 775
647 493
648 968
649 556
650 291
651 838
652 788
653 198
654 647
655 195
656 763
657 762
658 289
659 835
660 136
661 879
662 468
663 794
664 624
665 378
666 316
667 966
668 972
669 897
670 372
671 980
672 161
673 695
674 979
675 828
676 441
677 496
678 798
679 118
680 276
681 711
682 495
683 544
684 332
685 175
686 364
687 554
688 895
689 817
690 834
691 483
692 663
693 950
694 605
695 466
696 243
697 984
698 168
699 198
700 495
701 124
702 990
703 568
704 583
705 664
706 250
707 243
708 668
709 138
710 208
711 792
712 141
713 285
714 497
715 322
716 733
717 232
718 262
719 314
720 832
721 334
722 942
723 757
724 850
725 687
726 108
727 173
728 591
729 352
730 329
731 618
732 273
733 752
734 267
735 269
736 492
737 894
738 733
739 293
740 616
741 128
742 264
743 521
744 438
745 747
746 595
747 464
748 932
749 441
750 599
751 756
752 610
753 426
754 316
755 400
756 231
757 903
758 169
759 351
760 514
761 886
762 544
763 975
764 281
765 266
766 190
767 813
768 957
769 630
770 138
771 225
772 550
773 272
774 752
775 853
776 319
777 737
778 157
779 759
780 575
781 555
782 928
783 994
784 460
785 100
786 486
787 447
788 289
789 604
